(set-logic QF_NRA)
(set-info :source |Benchmarks generated from hycomp (https://es-static.fbk.eu/tools/hycomp/). BMC instances of non-linear hybrid automata taken from: Alessandro Cimatti, Sergio Mover, Stefano Tonetta, A quantifier-free SMT encoding of non-linear hybrid automata, FMCAD 2012 and Alessandro Cimatti, Sergio Mover, Stefano Tonetta, Quantier-free encoding of invariants for Hybrid Systems, Formal Methods in System Design. This instance solves a BMC problem of depth 4 and uses the quantifier free encoding with equivalences encoding. Contacts: Sergio Mover (mover@fbk.eu), Stefano Tonetta (tonettas@fbk.eu), Alessandro Cimatti (cimatti@fbk.eu).|)
(set-info :smt-lib-version 2.0)
(set-info :category "industrial")
(set-info :status unsat)
;; MathSAT API call trace
;; generated on Mon Mar 19 10:45:35 2012
(declare-fun b.EVENT.0__AT3 () Bool)
(declare-fun b.counter.3__AT3 () Bool)
(declare-fun b.delta__AT1 () Real)
(declare-fun b.time__AT4 () Real)
(declare-fun b.EVENT.1__AT3 () Bool)
(declare-fun b.EVENT.0__AT1 () Bool)
(declare-fun b.EVENT.1__AT0 () Bool)
(declare-fun b.delta__AT4 () Real)
(declare-fun b.EVENT.1__AT1 () Bool)
(declare-fun b.EVENT.0__AT0 () Bool)
(declare-fun b.EVENT.0__AT4 () Bool)
(declare-fun b.speed_y__AT3 () Real)
(declare-fun b.time__AT1 () Real)
(declare-fun b.EVENT.1__AT4 () Bool)
(declare-fun b.speed_y__AT1 () Real)
(declare-fun b.time__AT0 () Real)
(declare-fun b.speed_y__AT2 () Real)
(declare-fun b.counter.2__AT2 () Bool)
(declare-fun b.y__AT0 () Real)
(declare-fun b.counter.3__AT2 () Bool)
(declare-fun b.counter.0__AT0 () Bool)
(declare-fun b.counter.2__AT0 () Bool)
(declare-fun b.counter.1__AT0 () Bool)
(declare-fun b.counter.1__AT1 () Bool)
(declare-fun b.counter.2__AT1 () Bool)
(declare-fun speed_loss__AT0 () Real)
(declare-fun b.y__AT4 () Real)
(declare-fun b.event_is_timed__AT2 () Bool)
(declare-fun b.speed_y__AT0 () Real)
(declare-fun b.counter.0__AT4 () Bool)
(declare-fun b.event_is_timed__AT1 () Bool)
(declare-fun b.counter.0__AT2 () Bool)
(declare-fun b.event_is_timed__AT3 () Bool)
(declare-fun b.counter.1__AT4 () Bool)
(declare-fun b.event_is_timed__AT0 () Bool)
(declare-fun b.counter.1__AT2 () Bool)
(declare-fun b.counter.2__AT4 () Bool)
(declare-fun b.time__AT2 () Real)
(declare-fun b.counter.3__AT1 () Bool)
(declare-fun b.y__AT3 () Real)
(declare-fun b.counter.3__AT4 () Bool)
(declare-fun b.event_is_timed__AT4 () Bool)
(declare-fun b.delta__AT0 () Real)
(declare-fun b.delta__AT2 () Real)
(declare-fun b.counter.0__AT3 () Bool)
(declare-fun b.y__AT1 () Real)
(declare-fun b.time__AT3 () Real)
(declare-fun b.EVENT.0__AT2 () Bool)
(declare-fun b.counter.1__AT3 () Bool)
(declare-fun b.counter.0__AT1 () Bool)
(declare-fun b.counter.3__AT0 () Bool)
(declare-fun b.y__AT2 () Real)
(declare-fun b.speed_y__AT4 () Real)
(declare-fun b.delta__AT3 () Real)
(declare-fun b.EVENT.1__AT2 () Bool)
(declare-fun b.counter.2__AT3 () Bool)
(assert (let ((.def_748 (* (- 49.0) b.delta__AT4)))
(let ((.def_749 (* 5.0 b.speed_y__AT4)))
(let ((.def_751 (+ .def_749 .def_748)))
(let ((.def_755 (<= .def_751 0.0 )))
(let ((.def_754 (<= b.speed_y__AT4 0.0 )))
(let ((.def_756 (and .def_754 .def_755)))
(let ((.def_752 (<= 0.0 .def_751)))
(let ((.def_747 (<= 0.0 b.speed_y__AT4)))
(let ((.def_753 (and .def_747 .def_752)))
(let ((.def_757 (or .def_753 .def_756)))
(let ((.def_739 (* b.speed_y__AT4 b.delta__AT4)))
(let ((.def_740 (* 10.0 .def_739)))
(let ((.def_737 (* b.delta__AT4 b.delta__AT4)))
(let ((.def_738 (* (- 49.0) .def_737)))
(let ((.def_741 (+ .def_738 .def_740)))
(let ((.def_742 (* 10.0 b.y__AT4)))
(let ((.def_744 (+ .def_742 .def_741)))
(let ((.def_745 (<= 0.0 .def_744)))
(let ((.def_725 (<= 0.0 b.y__AT4)))
(let ((.def_746 (and .def_725 .def_745)))
(let ((.def_758 (and .def_746 .def_757)))
(let ((.def_61 (<= speed_loss__AT0 (/ 1 2))))
(let ((.def_58 (<= (/ 1 10) speed_loss__AT0)))
(let ((.def_62 (and .def_58 .def_61)))
(let ((.def_759 (and .def_62 .def_758)))
(let ((.def_454 (not b.counter.0__AT3)))
(let ((.def_442 (not b.counter.1__AT3)))
(let ((.def_729 (and .def_442 .def_454)))
(let ((.def_732 (or b.counter.3__AT3 .def_729)))
(let ((.def_449 (not b.counter.2__AT3)))
(let ((.def_730 (and .def_449 .def_729)))
(let ((.def_464 (not b.counter.3__AT3)))
(let ((.def_731 (or .def_464 .def_730)))
(let ((.def_733 (and .def_731 .def_732)))
(let ((.def_726 (and .def_62 .def_725)))
(let ((.def_722 (not b.EVENT.0__AT4)))
(let ((.def_720 (not b.EVENT.1__AT4)))
(let ((.def_723 (or .def_720 .def_722)))
(let ((.def_6 (not b.counter.0__AT4)))
(let ((.def_4 (not b.counter.1__AT4)))
(let ((.def_713 (or .def_4 .def_6)))
(let ((.def_717 (or b.counter.3__AT4 .def_713)))
(let ((.def_714 (or b.counter.2__AT4 .def_713)))
(let ((.def_9 (not b.counter.2__AT4)))
(let ((.def_712 (or .def_6 .def_9)))
(let ((.def_715 (and .def_712 .def_714)))
(let ((.def_12 (not b.counter.3__AT4)))
(let ((.def_716 (or .def_12 .def_715)))
(let ((.def_718 (and .def_716 .def_717)))
(let ((.def_724 (and .def_718 .def_723)))
(let ((.def_727 (and .def_724 .def_726)))
(let ((.def_707 (<= 0.0 b.delta__AT3)))
(let ((.def_562 (not b.EVENT.0__AT3)))
(let ((.def_560 (not b.EVENT.1__AT3)))
(let ((.def_654 (and .def_560 .def_562)))
(let ((.def_658 (not .def_654)))
(let ((.def_708 (or .def_658 .def_707)))
(let ((.def_709 (or b.EVENT.1__AT3 .def_708)))
(let ((.def_646 (= b.counter.0__AT4 b.counter.0__AT3)))
(let ((.def_644 (= b.counter.1__AT4 b.counter.1__AT3)))
(let ((.def_642 (= b.counter.2__AT4 b.counter.2__AT3)))
(let ((.def_641 (= b.counter.3__AT4 b.counter.3__AT3)))
(let ((.def_643 (and .def_641 .def_642)))
(let ((.def_645 (and .def_643 .def_644)))
(let ((.def_647 (and .def_645 .def_646)))
(let ((.def_704 (or .def_647 .def_658)))
(let ((.def_705 (or b.EVENT.1__AT3 .def_704)))
(let ((.def_692 (* (- 10.0) b.y__AT4)))
(let ((.def_579 (* b.speed_y__AT3 b.delta__AT3)))
(let ((.def_580 (* 10.0 .def_579)))
(let ((.def_696 (+ .def_580 .def_692)))
(let ((.def_577 (* b.delta__AT3 b.delta__AT3)))
(let ((.def_578 (* (- 49.0) .def_577)))
(let ((.def_697 (+ .def_578 .def_696)))
(let ((.def_582 (* 10.0 b.y__AT3)))
(let ((.def_698 (+ .def_582 .def_697)))
(let ((.def_699 (= .def_698 0.0 )))
(let ((.def_688 (* (- 5.0) b.speed_y__AT4)))
(let ((.def_588 (* (- 49.0) b.delta__AT3)))
(let ((.def_689 (+ .def_588 .def_688)))
(let ((.def_589 (* 5.0 b.speed_y__AT3)))
(let ((.def_690 (+ .def_589 .def_689)))
(let ((.def_691 (= .def_690 0.0 )))
(let ((.def_700 (and .def_691 .def_699)))
(let ((.def_701 (or .def_658 .def_700)))
(let ((.def_652 (= b.y__AT3 b.y__AT4)))
(let ((.def_640 (= b.speed_y__AT3 b.speed_y__AT4)))
(let ((.def_685 (and .def_640 .def_652)))
(let ((.def_682 (= b.delta__AT3 0.0 )))
(let ((.def_683 (and .def_654 .def_682)))
(let ((.def_684 (not .def_683)))
(let ((.def_686 (or .def_684 .def_685)))
(let ((.def_687 (or b.EVENT.1__AT3 .def_686)))
(let ((.def_702 (and .def_687 .def_701)))
(let ((.def_664 (= b.time__AT3 b.time__AT4)))
(let ((.def_676 (and .def_652 .def_664)))
(let ((.def_677 (and .def_640 .def_676)))
(let ((.def_678 (and .def_647 .def_677)))
(let ((.def_679 (or .def_560 .def_678)))
(let ((.def_667 (* (- 1.0) b.time__AT4)))
(let ((.def_670 (+ b.delta__AT3 .def_667)))
(let ((.def_671 (+ b.time__AT3 .def_670)))
(let ((.def_672 (= .def_671 0.0 )))
(let ((.def_673 (or .def_658 .def_672)))
(let ((.def_674 (or b.EVENT.1__AT3 .def_673)))
(let ((.def_665 (or .def_654 .def_664)))
(let ((.def_666 (or b.EVENT.1__AT3 .def_665)))
(let ((.def_675 (and .def_666 .def_674)))
(let ((.def_680 (and .def_675 .def_679)))
(let ((.def_660 (= .def_658 b.event_is_timed__AT4)))
(let ((.def_657 (= b.event_is_timed__AT3 .def_654)))
(let ((.def_661 (and .def_657 .def_660)))
(let ((.def_648 (and .def_640 .def_647)))
(let ((.def_587 (<= 0.0 b.speed_y__AT3)))
(let ((.def_602 (not .def_587)))
(let ((.def_601 (= b.y__AT3 0.0 )))
(let ((.def_603 (and .def_601 .def_602)))
(let ((.def_649 (or .def_603 .def_648)))
(let ((.def_617 (or .def_6 b.counter.0__AT3)))
(let ((.def_616 (or b.counter.0__AT4 .def_454)))
(let ((.def_618 (and .def_616 .def_617)))
(let ((.def_619 (and .def_4 .def_618)))
(let ((.def_620 (or b.counter.1__AT3 .def_619)))
(let ((.def_615 (or b.counter.1__AT4 .def_442)))
(let ((.def_621 (and .def_615 .def_620)))
(let ((.def_632 (and .def_9 .def_621)))
(let ((.def_633 (or b.counter.2__AT3 .def_632)))
(let ((.def_627 (and .def_4 .def_454)))
(let ((.def_628 (or b.counter.1__AT3 .def_627)))
(let ((.def_629 (and .def_615 .def_628)))
(let ((.def_630 (and b.counter.2__AT4 .def_629)))
(let ((.def_631 (or .def_449 .def_630)))
(let ((.def_634 (and .def_631 .def_633)))
(let ((.def_635 (and b.counter.3__AT4 .def_634)))
(let ((.def_636 (or b.counter.3__AT3 .def_635)))
(let ((.def_622 (and b.counter.2__AT4 .def_621)))
(let ((.def_623 (or b.counter.2__AT3 .def_622)))
(let ((.def_611 (or b.counter.1__AT4 b.counter.1__AT3)))
(let ((.def_609 (and .def_4 b.counter.0__AT4)))
(let ((.def_610 (or .def_442 .def_609)))
(let ((.def_612 (and .def_610 .def_611)))
(let ((.def_613 (and .def_9 .def_612)))
(let ((.def_614 (or .def_449 .def_613)))
(let ((.def_624 (and .def_614 .def_623)))
(let ((.def_625 (and .def_12 .def_624)))
(let ((.def_626 (or .def_464 .def_625)))
(let ((.def_637 (and .def_626 .def_636)))
(let ((.def_605 (* (- 1.0) b.speed_y__AT3)))
(let ((.def_101 (* (- 1.0) speed_loss__AT0)))
(let ((.def_102 (+ 1.0 .def_101)))
(let ((.def_606 (* .def_102 .def_605)))
(let ((.def_608 (= .def_606 b.speed_y__AT4)))
(let ((.def_638 (and .def_608 .def_637)))
(let ((.def_604 (not .def_603)))
(let ((.def_639 (or .def_604 .def_638)))
(let ((.def_650 (and .def_639 .def_649)))
(let ((.def_653 (and .def_650 .def_652)))
(let ((.def_655 (or .def_653 .def_654)))
(let ((.def_656 (or b.EVENT.1__AT3 .def_655)))
(let ((.def_662 (and .def_656 .def_661)))
(let ((.def_681 (and .def_662 .def_680)))
(let ((.def_703 (and .def_681 .def_702)))
(let ((.def_706 (and .def_703 .def_705)))
(let ((.def_710 (and .def_706 .def_709)))
(let ((.def_711 (and .def_560 .def_710)))
(let ((.def_728 (and .def_711 .def_727)))
(let ((.def_734 (and .def_728 .def_733)))
(let ((.def_591 (+ .def_589 .def_588)))
(let ((.def_595 (<= .def_591 0.0 )))
(let ((.def_594 (<= b.speed_y__AT3 0.0 )))
(let ((.def_596 (and .def_594 .def_595)))
(let ((.def_592 (<= 0.0 .def_591)))
(let ((.def_593 (and .def_587 .def_592)))
(let ((.def_597 (or .def_593 .def_596)))
(let ((.def_581 (+ .def_578 .def_580)))
(let ((.def_584 (+ .def_582 .def_581)))
(let ((.def_585 (<= 0.0 .def_584)))
(let ((.def_565 (<= 0.0 b.y__AT3)))
(let ((.def_586 (and .def_565 .def_585)))
(let ((.def_598 (and .def_586 .def_597)))
(let ((.def_599 (and .def_62 .def_598)))
(let ((.def_286 (not b.counter.0__AT2)))
(let ((.def_274 (not b.counter.1__AT2)))
(let ((.def_569 (and .def_274 .def_286)))
(let ((.def_572 (or b.counter.3__AT2 .def_569)))
(let ((.def_281 (not b.counter.2__AT2)))
(let ((.def_570 (and .def_281 .def_569)))
(let ((.def_296 (not b.counter.3__AT2)))
(let ((.def_571 (or .def_296 .def_570)))
(let ((.def_573 (and .def_571 .def_572)))
(let ((.def_566 (and .def_62 .def_565)))
(let ((.def_563 (or .def_560 .def_562)))
(let ((.def_553 (or .def_442 .def_454)))
(let ((.def_557 (or b.counter.3__AT3 .def_553)))
(let ((.def_554 (or b.counter.2__AT3 .def_553)))
(let ((.def_552 (or .def_449 .def_454)))
(let ((.def_555 (and .def_552 .def_554)))
(let ((.def_556 (or .def_464 .def_555)))
(let ((.def_558 (and .def_556 .def_557)))
(let ((.def_564 (and .def_558 .def_563)))
(let ((.def_567 (and .def_564 .def_566)))
(let ((.def_547 (<= 0.0 b.delta__AT2)))
(let ((.def_394 (not b.EVENT.0__AT2)))
(let ((.def_392 (not b.EVENT.1__AT2)))
(let ((.def_494 (and .def_392 .def_394)))
(let ((.def_498 (not .def_494)))
(let ((.def_548 (or .def_498 .def_547)))
(let ((.def_549 (or b.EVENT.1__AT2 .def_548)))
(let ((.def_486 (= b.counter.0__AT2 b.counter.0__AT3)))
(let ((.def_484 (= b.counter.1__AT2 b.counter.1__AT3)))
(let ((.def_482 (= b.counter.2__AT2 b.counter.2__AT3)))
(let ((.def_481 (= b.counter.3__AT2 b.counter.3__AT3)))
(let ((.def_483 (and .def_481 .def_482)))
(let ((.def_485 (and .def_483 .def_484)))
(let ((.def_487 (and .def_485 .def_486)))
(let ((.def_544 (or .def_487 .def_498)))
(let ((.def_545 (or b.EVENT.1__AT2 .def_544)))
(let ((.def_532 (* (- 10.0) b.y__AT3)))
(let ((.def_411 (* b.speed_y__AT2 b.delta__AT2)))
(let ((.def_412 (* 10.0 .def_411)))
(let ((.def_536 (+ .def_412 .def_532)))
(let ((.def_409 (* b.delta__AT2 b.delta__AT2)))
(let ((.def_410 (* (- 49.0) .def_409)))
(let ((.def_537 (+ .def_410 .def_536)))
(let ((.def_414 (* 10.0 b.y__AT2)))
(let ((.def_538 (+ .def_414 .def_537)))
(let ((.def_539 (= .def_538 0.0 )))
(let ((.def_528 (* (- 5.0) b.speed_y__AT3)))
(let ((.def_420 (* (- 49.0) b.delta__AT2)))
(let ((.def_529 (+ .def_420 .def_528)))
(let ((.def_421 (* 5.0 b.speed_y__AT2)))
(let ((.def_530 (+ .def_421 .def_529)))
(let ((.def_531 (= .def_530 0.0 )))
(let ((.def_540 (and .def_531 .def_539)))
(let ((.def_541 (or .def_498 .def_540)))
(let ((.def_492 (= b.y__AT2 b.y__AT3)))
(let ((.def_480 (= b.speed_y__AT2 b.speed_y__AT3)))
(let ((.def_525 (and .def_480 .def_492)))
(let ((.def_522 (= b.delta__AT2 0.0 )))
(let ((.def_523 (and .def_494 .def_522)))
(let ((.def_524 (not .def_523)))
(let ((.def_526 (or .def_524 .def_525)))
(let ((.def_527 (or b.EVENT.1__AT2 .def_526)))
(let ((.def_542 (and .def_527 .def_541)))
(let ((.def_504 (= b.time__AT2 b.time__AT3)))
(let ((.def_516 (and .def_492 .def_504)))
(let ((.def_517 (and .def_480 .def_516)))
(let ((.def_518 (and .def_487 .def_517)))
(let ((.def_519 (or .def_392 .def_518)))
(let ((.def_507 (* (- 1.0) b.time__AT3)))
(let ((.def_510 (+ b.delta__AT2 .def_507)))
(let ((.def_511 (+ b.time__AT2 .def_510)))
(let ((.def_512 (= .def_511 0.0 )))
(let ((.def_513 (or .def_498 .def_512)))
(let ((.def_514 (or b.EVENT.1__AT2 .def_513)))
(let ((.def_505 (or .def_494 .def_504)))
(let ((.def_506 (or b.EVENT.1__AT2 .def_505)))
(let ((.def_515 (and .def_506 .def_514)))
(let ((.def_520 (and .def_515 .def_519)))
(let ((.def_500 (= .def_498 b.event_is_timed__AT3)))
(let ((.def_497 (= b.event_is_timed__AT2 .def_494)))
(let ((.def_501 (and .def_497 .def_500)))
(let ((.def_488 (and .def_480 .def_487)))
(let ((.def_419 (<= 0.0 b.speed_y__AT2)))
(let ((.def_434 (not .def_419)))
(let ((.def_433 (= b.y__AT2 0.0 )))
(let ((.def_435 (and .def_433 .def_434)))
(let ((.def_489 (or .def_435 .def_488)))
(let ((.def_455 (or b.counter.0__AT2 .def_454)))
(let ((.def_453 (or .def_286 b.counter.0__AT3)))
(let ((.def_456 (and .def_453 .def_455)))
(let ((.def_457 (and .def_442 .def_456)))
(let ((.def_458 (or b.counter.1__AT2 .def_457)))
(let ((.def_452 (or .def_274 b.counter.1__AT3)))
(let ((.def_459 (and .def_452 .def_458)))
(let ((.def_472 (and .def_449 .def_459)))
(let ((.def_473 (or b.counter.2__AT2 .def_472)))
(let ((.def_467 (and .def_286 .def_442)))
(let ((.def_468 (or b.counter.1__AT2 .def_467)))
(let ((.def_469 (and .def_452 .def_468)))
(let ((.def_470 (and b.counter.2__AT3 .def_469)))
(let ((.def_471 (or .def_281 .def_470)))
(let ((.def_474 (and .def_471 .def_473)))
(let ((.def_475 (and b.counter.3__AT3 .def_474)))
(let ((.def_476 (or b.counter.3__AT2 .def_475)))
(let ((.def_460 (and b.counter.2__AT3 .def_459)))
(let ((.def_461 (or b.counter.2__AT2 .def_460)))
(let ((.def_446 (or b.counter.1__AT2 b.counter.1__AT3)))
(let ((.def_444 (and .def_442 b.counter.0__AT3)))
(let ((.def_445 (or .def_274 .def_444)))
(let ((.def_447 (and .def_445 .def_446)))
(let ((.def_450 (and .def_447 .def_449)))
(let ((.def_451 (or .def_281 .def_450)))
(let ((.def_462 (and .def_451 .def_461)))
(let ((.def_465 (and .def_462 .def_464)))
(let ((.def_466 (or .def_296 .def_465)))
(let ((.def_477 (and .def_466 .def_476)))
(let ((.def_437 (* (- 1.0) b.speed_y__AT2)))
(let ((.def_438 (* .def_102 .def_437)))
(let ((.def_440 (= .def_438 b.speed_y__AT3)))
(let ((.def_478 (and .def_440 .def_477)))
(let ((.def_436 (not .def_435)))
(let ((.def_479 (or .def_436 .def_478)))
(let ((.def_490 (and .def_479 .def_489)))
(let ((.def_493 (and .def_490 .def_492)))
(let ((.def_495 (or .def_493 .def_494)))
(let ((.def_496 (or b.EVENT.1__AT2 .def_495)))
(let ((.def_502 (and .def_496 .def_501)))
(let ((.def_521 (and .def_502 .def_520)))
(let ((.def_543 (and .def_521 .def_542)))
(let ((.def_546 (and .def_543 .def_545)))
(let ((.def_550 (and .def_546 .def_549)))
(let ((.def_551 (and .def_392 .def_550)))
(let ((.def_568 (and .def_551 .def_567)))
(let ((.def_574 (and .def_568 .def_573)))
(let ((.def_423 (+ .def_421 .def_420)))
(let ((.def_427 (<= .def_423 0.0 )))
(let ((.def_426 (<= b.speed_y__AT2 0.0 )))
(let ((.def_428 (and .def_426 .def_427)))
(let ((.def_424 (<= 0.0 .def_423)))
(let ((.def_425 (and .def_419 .def_424)))
(let ((.def_429 (or .def_425 .def_428)))
(let ((.def_413 (+ .def_410 .def_412)))
(let ((.def_416 (+ .def_414 .def_413)))
(let ((.def_417 (<= 0.0 .def_416)))
(let ((.def_397 (<= 0.0 b.y__AT2)))
(let ((.def_418 (and .def_397 .def_417)))
(let ((.def_430 (and .def_418 .def_429)))
(let ((.def_431 (and .def_62 .def_430)))
(let ((.def_119 (not b.counter.0__AT1)))
(let ((.def_107 (not b.counter.1__AT1)))
(let ((.def_401 (and .def_107 .def_119)))
(let ((.def_404 (or b.counter.3__AT1 .def_401)))
(let ((.def_114 (not b.counter.2__AT1)))
(let ((.def_402 (and .def_114 .def_401)))
(let ((.def_129 (not b.counter.3__AT1)))
(let ((.def_403 (or .def_129 .def_402)))
(let ((.def_405 (and .def_403 .def_404)))
(let ((.def_398 (and .def_62 .def_397)))
(let ((.def_395 (or .def_392 .def_394)))
(let ((.def_385 (or .def_274 .def_286)))
(let ((.def_389 (or b.counter.3__AT2 .def_385)))
(let ((.def_386 (or b.counter.2__AT2 .def_385)))
(let ((.def_384 (or .def_281 .def_286)))
(let ((.def_387 (and .def_384 .def_386)))
(let ((.def_388 (or .def_296 .def_387)))
(let ((.def_390 (and .def_388 .def_389)))
(let ((.def_396 (and .def_390 .def_395)))
(let ((.def_399 (and .def_396 .def_398)))
(let ((.def_379 (<= 0.0 b.delta__AT1)))
(let ((.def_228 (not b.EVENT.0__AT1)))
(let ((.def_226 (not b.EVENT.1__AT1)))
(let ((.def_326 (and .def_226 .def_228)))
(let ((.def_330 (not .def_326)))
(let ((.def_380 (or .def_330 .def_379)))
(let ((.def_381 (or b.EVENT.1__AT1 .def_380)))
(let ((.def_318 (= b.counter.0__AT1 b.counter.0__AT2)))
(let ((.def_316 (= b.counter.1__AT1 b.counter.1__AT2)))
(let ((.def_314 (= b.counter.2__AT1 b.counter.2__AT2)))
(let ((.def_313 (= b.counter.3__AT1 b.counter.3__AT2)))
(let ((.def_315 (and .def_313 .def_314)))
(let ((.def_317 (and .def_315 .def_316)))
(let ((.def_319 (and .def_317 .def_318)))
(let ((.def_376 (or .def_319 .def_330)))
(let ((.def_377 (or b.EVENT.1__AT1 .def_376)))
(let ((.def_364 (* (- 10.0) b.y__AT2)))
(let ((.def_243 (* b.speed_y__AT1 b.delta__AT1)))
(let ((.def_244 (* 10.0 .def_243)))
(let ((.def_368 (+ .def_244 .def_364)))
(let ((.def_241 (* b.delta__AT1 b.delta__AT1)))
(let ((.def_242 (* (- 49.0) .def_241)))
(let ((.def_369 (+ .def_242 .def_368)))
(let ((.def_246 (* 10.0 b.y__AT1)))
(let ((.def_370 (+ .def_246 .def_369)))
(let ((.def_371 (= .def_370 0.0 )))
(let ((.def_360 (* (- 5.0) b.speed_y__AT2)))
(let ((.def_252 (* (- 49.0) b.delta__AT1)))
(let ((.def_361 (+ .def_252 .def_360)))
(let ((.def_253 (* 5.0 b.speed_y__AT1)))
(let ((.def_362 (+ .def_253 .def_361)))
(let ((.def_363 (= .def_362 0.0 )))
(let ((.def_372 (and .def_363 .def_371)))
(let ((.def_373 (or .def_330 .def_372)))
(let ((.def_324 (= b.y__AT1 b.y__AT2)))
(let ((.def_312 (= b.speed_y__AT1 b.speed_y__AT2)))
(let ((.def_357 (and .def_312 .def_324)))
(let ((.def_354 (= b.delta__AT1 0.0 )))
(let ((.def_355 (and .def_326 .def_354)))
(let ((.def_356 (not .def_355)))
(let ((.def_358 (or .def_356 .def_357)))
(let ((.def_359 (or b.EVENT.1__AT1 .def_358)))
(let ((.def_374 (and .def_359 .def_373)))
(let ((.def_336 (= b.time__AT1 b.time__AT2)))
(let ((.def_348 (and .def_324 .def_336)))
(let ((.def_349 (and .def_312 .def_348)))
(let ((.def_350 (and .def_319 .def_349)))
(let ((.def_351 (or .def_226 .def_350)))
(let ((.def_339 (* (- 1.0) b.time__AT2)))
(let ((.def_342 (+ b.delta__AT1 .def_339)))
(let ((.def_343 (+ b.time__AT1 .def_342)))
(let ((.def_344 (= .def_343 0.0 )))
(let ((.def_345 (or .def_330 .def_344)))
(let ((.def_346 (or b.EVENT.1__AT1 .def_345)))
(let ((.def_337 (or .def_326 .def_336)))
(let ((.def_338 (or b.EVENT.1__AT1 .def_337)))
(let ((.def_347 (and .def_338 .def_346)))
(let ((.def_352 (and .def_347 .def_351)))
(let ((.def_332 (= .def_330 b.event_is_timed__AT2)))
(let ((.def_329 (= b.event_is_timed__AT1 .def_326)))
(let ((.def_333 (and .def_329 .def_332)))
(let ((.def_320 (and .def_312 .def_319)))
(let ((.def_251 (<= 0.0 b.speed_y__AT1)))
(let ((.def_266 (not .def_251)))
(let ((.def_265 (= b.y__AT1 0.0 )))
(let ((.def_267 (and .def_265 .def_266)))
(let ((.def_321 (or .def_267 .def_320)))
(let ((.def_287 (or b.counter.0__AT1 .def_286)))
(let ((.def_285 (or .def_119 b.counter.0__AT2)))
(let ((.def_288 (and .def_285 .def_287)))
(let ((.def_289 (and .def_274 .def_288)))
(let ((.def_290 (or b.counter.1__AT1 .def_289)))
(let ((.def_284 (or .def_107 b.counter.1__AT2)))
(let ((.def_291 (and .def_284 .def_290)))
(let ((.def_304 (and .def_281 .def_291)))
(let ((.def_305 (or b.counter.2__AT1 .def_304)))
(let ((.def_299 (and .def_119 .def_274)))
(let ((.def_300 (or b.counter.1__AT1 .def_299)))
(let ((.def_301 (and .def_284 .def_300)))
(let ((.def_302 (and b.counter.2__AT2 .def_301)))
(let ((.def_303 (or .def_114 .def_302)))
(let ((.def_306 (and .def_303 .def_305)))
(let ((.def_307 (and b.counter.3__AT2 .def_306)))
(let ((.def_308 (or b.counter.3__AT1 .def_307)))
(let ((.def_292 (and b.counter.2__AT2 .def_291)))
(let ((.def_293 (or b.counter.2__AT1 .def_292)))
(let ((.def_278 (or b.counter.1__AT1 b.counter.1__AT2)))
(let ((.def_276 (and .def_274 b.counter.0__AT2)))
(let ((.def_277 (or .def_107 .def_276)))
(let ((.def_279 (and .def_277 .def_278)))
(let ((.def_282 (and .def_279 .def_281)))
(let ((.def_283 (or .def_114 .def_282)))
(let ((.def_294 (and .def_283 .def_293)))
(let ((.def_297 (and .def_294 .def_296)))
(let ((.def_298 (or .def_129 .def_297)))
(let ((.def_309 (and .def_298 .def_308)))
(let ((.def_269 (* (- 1.0) b.speed_y__AT1)))
(let ((.def_270 (* .def_102 .def_269)))
(let ((.def_272 (= .def_270 b.speed_y__AT2)))
(let ((.def_310 (and .def_272 .def_309)))
(let ((.def_268 (not .def_267)))
(let ((.def_311 (or .def_268 .def_310)))
(let ((.def_322 (and .def_311 .def_321)))
(let ((.def_325 (and .def_322 .def_324)))
(let ((.def_327 (or .def_325 .def_326)))
(let ((.def_328 (or b.EVENT.1__AT1 .def_327)))
(let ((.def_334 (and .def_328 .def_333)))
(let ((.def_353 (and .def_334 .def_352)))
(let ((.def_375 (and .def_353 .def_374)))
(let ((.def_378 (and .def_375 .def_377)))
(let ((.def_382 (and .def_378 .def_381)))
(let ((.def_383 (and .def_226 .def_382)))
(let ((.def_400 (and .def_383 .def_399)))
(let ((.def_406 (and .def_400 .def_405)))
(let ((.def_255 (+ .def_253 .def_252)))
(let ((.def_259 (<= .def_255 0.0 )))
(let ((.def_258 (<= b.speed_y__AT1 0.0 )))
(let ((.def_260 (and .def_258 .def_259)))
(let ((.def_256 (<= 0.0 .def_255)))
(let ((.def_257 (and .def_251 .def_256)))
(let ((.def_261 (or .def_257 .def_260)))
(let ((.def_245 (+ .def_242 .def_244)))
(let ((.def_248 (+ .def_246 .def_245)))
(let ((.def_249 (<= 0.0 .def_248)))
(let ((.def_231 (<= 0.0 b.y__AT1)))
(let ((.def_250 (and .def_231 .def_249)))
(let ((.def_262 (and .def_250 .def_261)))
(let ((.def_263 (and .def_62 .def_262)))
(let ((.def_32 (not b.counter.0__AT0)))
(let ((.def_30 (not b.counter.1__AT0)))
(let ((.def_33 (and .def_30 .def_32)))
(let ((.def_236 (or .def_33 b.counter.3__AT0)))
(let ((.def_38 (not b.counter.3__AT0)))
(let ((.def_35 (not b.counter.2__AT0)))
(let ((.def_36 (and .def_33 .def_35)))
(let ((.def_235 (or .def_36 .def_38)))
(let ((.def_237 (and .def_235 .def_236)))
(let ((.def_232 (and .def_62 .def_231)))
(let ((.def_229 (or .def_226 .def_228)))
(let ((.def_219 (or .def_107 .def_119)))
(let ((.def_223 (or b.counter.3__AT1 .def_219)))
(let ((.def_220 (or b.counter.2__AT1 .def_219)))
(let ((.def_218 (or .def_114 .def_119)))
(let ((.def_221 (and .def_218 .def_220)))
(let ((.def_222 (or .def_129 .def_221)))
(let ((.def_224 (and .def_222 .def_223)))
(let ((.def_230 (and .def_224 .def_229)))
(let ((.def_233 (and .def_230 .def_232)))
(let ((.def_213 (<= 0.0 b.delta__AT0)))
(let ((.def_51 (not b.EVENT.0__AT0)))
(let ((.def_49 (not b.EVENT.1__AT0)))
(let ((.def_159 (and .def_49 .def_51)))
(let ((.def_163 (not .def_159)))
(let ((.def_214 (or .def_163 .def_213)))
(let ((.def_215 (or b.EVENT.1__AT0 .def_214)))
(let ((.def_151 (= b.counter.0__AT0 b.counter.0__AT1)))
(let ((.def_149 (= b.counter.1__AT0 b.counter.1__AT1)))
(let ((.def_147 (= b.counter.2__AT0 b.counter.2__AT1)))
(let ((.def_146 (= b.counter.3__AT0 b.counter.3__AT1)))
(let ((.def_148 (and .def_146 .def_147)))
(let ((.def_150 (and .def_148 .def_149)))
(let ((.def_152 (and .def_150 .def_151)))
(let ((.def_210 (or .def_152 .def_163)))
(let ((.def_211 (or b.EVENT.1__AT0 .def_210)))
(let ((.def_199 (* (- 10.0) b.y__AT1)))
(let ((.def_72 (* b.speed_y__AT0 b.delta__AT0)))
(let ((.def_73 (* 10.0 .def_72)))
(let ((.def_202 (+ .def_73 .def_199)))
(let ((.def_68 (* b.delta__AT0 b.delta__AT0)))
(let ((.def_71 (* (- 49.0) .def_68)))
(let ((.def_203 (+ .def_71 .def_202)))
(let ((.def_75 (* 10.0 b.y__AT0)))
(let ((.def_204 (+ .def_75 .def_203)))
(let ((.def_205 (= .def_204 0.0 )))
(let ((.def_194 (* (- 5.0) b.speed_y__AT1)))
(let ((.def_81 (* (- 49.0) b.delta__AT0)))
(let ((.def_195 (+ .def_81 .def_194)))
(let ((.def_83 (* 5.0 b.speed_y__AT0)))
(let ((.def_196 (+ .def_83 .def_195)))
(let ((.def_197 (= .def_196 0.0 )))
(let ((.def_206 (and .def_197 .def_205)))
(let ((.def_207 (or .def_163 .def_206)))
(let ((.def_157 (= b.y__AT0 b.y__AT1)))
(let ((.def_145 (= b.speed_y__AT0 b.speed_y__AT1)))
(let ((.def_190 (and .def_145 .def_157)))
(let ((.def_187 (= b.delta__AT0 0.0 )))
(let ((.def_188 (and .def_159 .def_187)))
(let ((.def_189 (not .def_188)))
(let ((.def_191 (or .def_189 .def_190)))
(let ((.def_192 (or b.EVENT.1__AT0 .def_191)))
(let ((.def_208 (and .def_192 .def_207)))
(let ((.def_169 (= b.time__AT0 b.time__AT1)))
(let ((.def_181 (and .def_157 .def_169)))
(let ((.def_182 (and .def_145 .def_181)))
(let ((.def_183 (and .def_152 .def_182)))
(let ((.def_184 (or .def_49 .def_183)))
(let ((.def_172 (* (- 1.0) b.time__AT1)))
(let ((.def_175 (+ b.delta__AT0 .def_172)))
(let ((.def_176 (+ b.time__AT0 .def_175)))
(let ((.def_177 (= .def_176 0.0 )))
(let ((.def_178 (or .def_163 .def_177)))
(let ((.def_179 (or b.EVENT.1__AT0 .def_178)))
(let ((.def_170 (or .def_159 .def_169)))
(let ((.def_171 (or b.EVENT.1__AT0 .def_170)))
(let ((.def_180 (and .def_171 .def_179)))
(let ((.def_185 (and .def_180 .def_184)))
(let ((.def_165 (= .def_163 b.event_is_timed__AT1)))
(let ((.def_162 (= b.event_is_timed__AT0 .def_159)))
(let ((.def_166 (and .def_162 .def_165)))
(let ((.def_153 (and .def_145 .def_152)))
(let ((.def_80 (<= 0.0 b.speed_y__AT0)))
(let ((.def_96 (not .def_80)))
(let ((.def_95 (= b.y__AT0 0.0 )))
(let ((.def_97 (and .def_95 .def_96)))
(let ((.def_154 (or .def_97 .def_153)))
(let ((.def_120 (or b.counter.0__AT0 .def_119)))
(let ((.def_118 (or .def_32 b.counter.0__AT1)))
(let ((.def_121 (and .def_118 .def_120)))
(let ((.def_122 (and .def_107 .def_121)))
(let ((.def_123 (or b.counter.1__AT0 .def_122)))
(let ((.def_117 (or .def_30 b.counter.1__AT1)))
(let ((.def_124 (and .def_117 .def_123)))
(let ((.def_137 (and .def_114 .def_124)))
(let ((.def_138 (or b.counter.2__AT0 .def_137)))
(let ((.def_132 (and .def_32 .def_107)))
(let ((.def_133 (or b.counter.1__AT0 .def_132)))
(let ((.def_134 (and .def_117 .def_133)))
(let ((.def_135 (and b.counter.2__AT1 .def_134)))
(let ((.def_136 (or .def_35 .def_135)))
(let ((.def_139 (and .def_136 .def_138)))
(let ((.def_140 (and b.counter.3__AT1 .def_139)))
(let ((.def_141 (or b.counter.3__AT0 .def_140)))
(let ((.def_125 (and b.counter.2__AT1 .def_124)))
(let ((.def_126 (or b.counter.2__AT0 .def_125)))
(let ((.def_111 (or b.counter.1__AT0 b.counter.1__AT1)))
(let ((.def_109 (and .def_107 b.counter.0__AT1)))
(let ((.def_110 (or .def_30 .def_109)))
(let ((.def_112 (and .def_110 .def_111)))
(let ((.def_115 (and .def_112 .def_114)))
(let ((.def_116 (or .def_35 .def_115)))
(let ((.def_127 (and .def_116 .def_126)))
(let ((.def_130 (and .def_127 .def_129)))
(let ((.def_131 (or .def_38 .def_130)))
(let ((.def_142 (and .def_131 .def_141)))
(let ((.def_100 (* (- 1.0) b.speed_y__AT0)))
(let ((.def_103 (* .def_100 .def_102)))
(let ((.def_105 (= .def_103 b.speed_y__AT1)))
(let ((.def_143 (and .def_105 .def_142)))
(let ((.def_98 (not .def_97)))
(let ((.def_144 (or .def_98 .def_143)))
(let ((.def_155 (and .def_144 .def_154)))
(let ((.def_158 (and .def_155 .def_157)))
(let ((.def_160 (or .def_158 .def_159)))
(let ((.def_161 (or b.EVENT.1__AT0 .def_160)))
(let ((.def_167 (and .def_161 .def_166)))
(let ((.def_186 (and .def_167 .def_185)))
(let ((.def_209 (and .def_186 .def_208)))
(let ((.def_212 (and .def_209 .def_211)))
(let ((.def_216 (and .def_212 .def_215)))
(let ((.def_217 (and .def_49 .def_216)))
(let ((.def_234 (and .def_217 .def_233)))
(let ((.def_238 (and .def_234 .def_237)))
(let ((.def_85 (+ .def_83 .def_81)))
(let ((.def_89 (<= .def_85 0.0 )))
(let ((.def_88 (<= b.speed_y__AT0 0.0 )))
(let ((.def_90 (and .def_88 .def_89)))
(let ((.def_86 (<= 0.0 .def_85)))
(let ((.def_87 (and .def_80 .def_86)))
(let ((.def_91 (or .def_87 .def_90)))
(let ((.def_74 (+ .def_71 .def_73)))
(let ((.def_77 (+ .def_75 .def_74)))
(let ((.def_78 (<= 0.0 .def_77)))
(let ((.def_54 (<= 0.0 b.y__AT0)))
(let ((.def_79 (and .def_54 .def_78)))
(let ((.def_92 (and .def_79 .def_91)))
(let ((.def_93 (and .def_62 .def_92)))
(let ((.def_63 (and .def_54 .def_62)))
(let ((.def_52 (or .def_49 .def_51)))
(let ((.def_42 (or .def_30 .def_32)))
(let ((.def_46 (or b.counter.3__AT0 .def_42)))
(let ((.def_43 (or b.counter.2__AT0 .def_42)))
(let ((.def_41 (or .def_32 .def_35)))
(let ((.def_44 (and .def_41 .def_43)))
(let ((.def_45 (or .def_38 .def_44)))
(let ((.def_47 (and .def_45 .def_46)))
(let ((.def_53 (and .def_47 .def_52)))
(let ((.def_64 (and .def_53 .def_63)))
(let ((.def_39 (and .def_36 .def_38)))
(let ((.def_27 (= b.speed_y__AT0 0.0 )))
(let ((.def_24 (= b.y__AT0 10.0 )))
(let ((.def_19 (= b.time__AT0 0.0 )))
(let ((.def_21 (and .def_19 b.event_is_timed__AT0)))
(let ((.def_25 (and .def_21 .def_24)))
(let ((.def_28 (and .def_25 .def_27)))
(let ((.def_40 (and .def_28 .def_39)))
(let ((.def_65 (and .def_40 .def_64)))
(let ((.def_7 (and .def_4 .def_6)))
(let ((.def_14 (or .def_7 b.counter.3__AT4)))
(let ((.def_10 (and .def_7 .def_9)))
(let ((.def_13 (or .def_10 .def_12)))
(let ((.def_15 (and .def_13 .def_14)))
(let ((.def_16 (not .def_15)))
(let ((.def_66 (and .def_16 .def_65)))
(let ((.def_94 (and .def_66 .def_93)))
(let ((.def_239 (and .def_94 .def_238)))
(let ((.def_264 (and .def_239 .def_263)))
(let ((.def_407 (and .def_264 .def_406)))
(let ((.def_432 (and .def_407 .def_431)))
(let ((.def_575 (and .def_432 .def_574)))
(let ((.def_600 (and .def_575 .def_599)))
(let ((.def_735 (and .def_600 .def_734)))
(let ((.def_760 (and .def_735 .def_759)))
.def_760))))))))))))))))))))))))))))))))))))))))))))))))))))))))))))))))))))))))))))))))))))))))))))))))))))))))))))))))))))))))))))))))))))))))))))))))))))))))))))))))))))))))))))))))))))))))))))))))))))))))))))))))))))))))))))))))))))))))))))))))))))))))))))))))))))))))))))))))))))))))))))))))))))))))))))))))))))))))))))))))))))))))))))))))))))))))))))))))))))))))))))))))))))))))))))))))))))))))))))))))))))))))))))))))))))))))))))))))))))))))))))))))))))))))))))))))))))))))))))))))))))))))))))))))))))))))))))))))))))))))))))))))))))))))))))))))))))))))))))))))))))))))))))))))))))))))))))))))))))))))))))))))))))))))))))))))))))))))))))))))))))))))))))))))))))))
(check-sat)
(exit)
